<?xml version = "1.0" encoding="UTF-8" standalone="yes"?>
<CPLEXSolution version="1.2">
 <header
   problemName="/home/jiricermak/workspace/gtlibrary/SSEIter.lp"
   objectiveValue="-35.470390543516"
   solutionTypeValue="1"
   solutionTypeString="basic"
   solutionStatusValue="1"
   solutionStatusString="optimal"
   solutionMethodString="dual"
   primalFeasible="1"
   dualFeasible="1"
   simplexIterations="8"
   writeLevel="1"/>
 <quality
   epRHS="1e-06"
   epOpt="1e-06"
   maxPrimalInfeas="8.88178419700125e-16"
   maxDualInfeas="0"
   maxPrimalResidual="1.73194791841524e-14"
   maxDualResidual="1.77635683940025e-14"
   maxX="44.0937536215089"
   maxPi="165.085648148148"
   maxSlack="33.3097693823154"
   maxRedCost="122.085648148148"
   kappa="14797.3371736909"/>
 <linearConstraints>
  <constraint name="c1" index="0" status="BS" slack="0" dual="-0"/>
  <constraint name="c1" index="1" status="LL" slack="0" dual="113.085648148148"/>
  <constraint name="c3" index="2" status="LL" slack="0" dual="-0"/>
  <constraint name="c5" index="3" status="LL" slack="0" dual="-5.04166666666666"/>
  <constraint name="c7" index="4" status="LL" slack="0" dual="0"/>
  <constraint name="c9" index="5" status="BS" slack="0" dual="-0"/>
  <constraint name="c11" index="6" status="LL" slack="0" dual="-5.04166666666666"/>
  <constraint name="c13" index="7" status="LL" slack="0" dual="-5.04166666666666"/>
  <constraint name="c15" index="8" status="LL" slack="0" dual="0"/>
  <constraint name="c17" index="9" status="LL" slack="0" dual="0"/>
  <constraint name="c19" index="10" status="LL" slack="0" dual="-52"/>
  <constraint name="c21" index="11" status="LL" slack="0" dual="-2.58333333333333"/>
  <constraint name="c23" index="12" status="LL" slack="0" dual="-5.04166666666666"/>
  <constraint name="c25" index="13" status="LL" slack="0" dual="113.085648148148"/>
  <constraint name="c27" index="14" status="LL" slack="0" dual="-5.04166666666666"/>
  <constraint name="c29" index="15" status="LL" slack="0" dual="-52"/>
  <constraint name="c31" index="16" status="LL" slack="0" dual="-46.9583333333333"/>
  <constraint name="c33" index="17" status="LL" slack="0" dual="-46.9583333333333"/>
  <constraint name="c35" index="18" status="LL" slack="0" dual="0"/>
  <constraint name="c37" index="19" status="LL" slack="0" dual="-46.9583333333333"/>
  <constraint name="c39" index="20" status="LL" slack="0" dual="113.085648148148"/>
  <constraint name="c41" index="21" status="LL" slack="0" dual="113.085648148148"/>
  <constraint name="c43" index="22" status="LL" slack="0" dual="0"/>
  <constraint name="c45" index="23" status="LL" slack="0" dual="113.085648148148"/>
  <constraint name="c47" index="24" status="LL" slack="0" dual="0"/>
  <constraint name="c49" index="25" status="LL" slack="0" dual="-0"/>
  <constraint name="c51" index="26" status="LL" slack="0" dual="0"/>
  <constraint name="c53" index="27" status="LL" slack="0" dual="0"/>
  <constraint name="c55" index="28" status="LL" slack="0" dual="-0"/>
  <constraint name="c57" index="29" status="LL" slack="0" dual="0.906666666666667"/>
  <constraint name="c59" index="30" status="LL" slack="0" dual="-0"/>
  <constraint name="c61" index="31" status="LL" slack="0" dual="0.958333333333333"/>
  <constraint name="c63" index="32" status="LL" slack="0" dual="1.31578947368421"/>
  <constraint name="c65" index="33" status="LL" slack="0" dual="-0"/>
  <constraint name="c67" index="34" status="LL" slack="0" dual="3.0162037037037"/>
  <constraint name="c69" index="35" status="LL" slack="0" dual="0.958333333333333"/>
  <constraint name="c71" index="36" status="LL" slack="0" dual="-0"/>
  <constraint name="c73" index="37" status="LL" slack="0" dual="0.834862385321101"/>
  <constraint name="c75" index="38" status="LL" slack="0" dual="0.958333333333333"/>
  <constraint name="c77" index="39" status="LL" slack="0" dual="0"/>
  <constraint name="c79" index="40" status="LL" slack="0" dual="0"/>
  <constraint name="c81" index="41" status="LL" slack="0" dual="-0.958333333333333"/>
  <constraint name="c83" index="42" status="LL" slack="0" dual="0"/>
  <constraint name="c85" index="43" status="LL" slack="0" dual="-0"/>
  <constraint name="c87" index="44" status="BS" slack="-8.67006605632176" dual="0"/>
  <constraint name="c89" index="45" status="BS" slack="0" dual="0"/>
  <constraint name="c91" index="46" status="BS" slack="-3.4043342218102" dual="0"/>
  <constraint name="c93" index="47" status="LL" slack="0" dual="-0.958333333333333"/>
  <constraint name="c95" index="48" status="BS" slack="-27.1913315563796" dual="0"/>
  <constraint name="c97" index="49" status="BS" slack="0" dual="0"/>
  <constraint name="c99" index="50" status="BS" slack="-3.4043342218102" dual="0"/>
  <constraint name="c101" index="51" status="LL" slack="0" dual="-0.834862385321101"/>
  <constraint name="c103" index="52" status="BS" slack="0" dual="0"/>
  <constraint name="c105" index="53" status="LL" slack="0" dual="-0"/>
  <constraint name="c107" index="54" status="BS" slack="-30.5956657781898" dual="0"/>
  <constraint name="c109" index="55" status="BS" slack="-4.90624637849117" dual="0"/>
  <constraint name="c111" index="56" status="BS" slack="-4.90624637849117" dual="0"/>
  <constraint name="c113" index="57" status="BS" slack="-33.3097693823154" dual="0"/>
  <constraint name="c115" index="58" status="LL" slack="0" dual="-0"/>
  <constraint name="c117" index="59" status="BS" slack="0" dual="0"/>
  <constraint name="c119" index="60" status="LL" slack="0" dual="-0.357456140350877"/>
  <constraint name="c121" index="61" status="BS" slack="-33.3097693823154" dual="0"/>
  <constraint name="c123" index="62" status="BS" slack="0" dual="0"/>
  <constraint name="c125" index="63" status="BS" slack="-33.3097693823154" dual="0"/>
  <constraint name="c127" index="64" status="LL" slack="0" dual="-0"/>
  <constraint name="c129" index="65" status="BS" slack="-3.76381967783057" dual="0"/>
  <constraint name="c131" index="66" status="BS" slack="-15.0552787113223" dual="0"/>
  <constraint name="c133" index="67" status="BS" slack="-1.73194791841524e-14" dual="0"/>
  <constraint name="c135" index="68" status="BS" slack="-1.68753899743024e-14" dual="0"/>
  <constraint name="c137" index="69" status="BS" slack="0" dual="0"/>
  <constraint name="c139" index="70" status="BS" slack="0" dual="0"/>
  <constraint name="c141" index="71" status="LL" slack="0" dual="-2.05787037037037"/>
  <constraint name="c143" index="72" status="BS" slack="8.88178419700125e-16" dual="0"/>
  <constraint name="c145" index="73" status="LL" slack="0" dual="-0"/>
  <constraint name="c147" index="74" status="BS" slack="-11.2914590334917" dual="0"/>
  <constraint name="c149" index="75" status="BS" slack="0" dual="0"/>
  <constraint name="c151" index="76" status="BS" slack="0" dual="0"/>
  <constraint name="c153" index="77" status="LL" slack="0" dual="-0.146944444444444"/>
  <constraint name="c155" index="78" status="LL" slack="0" dual="-0.811388888888889"/>
  <constraint name="c157" index="79" status="BS" slack="0" dual="0"/>
  <constraint name="c159" index="80" status="LL" slack="0" dual="-0.906666666666667"/>
  <constraint name="c161" index="81" status="BS" slack="0" dual="0"/>
  <constraint name="c163" index="82" status="BS" slack="0" dual="0"/>
  <constraint name="c165" index="83" status="BS" slack="0" dual="0"/>
  <constraint name="c167" index="84" status="LL" slack="0" dual="-0"/>
  <constraint name="c169" index="85" status="LL" slack="0" dual="-0"/>
  <constraint name="c171" index="86" status="LL" slack="0" dual="0.958333333333333"/>
  <constraint name="c173" index="87" status="LL" slack="0" dual="-0"/>
  <constraint name="c175" index="88" status="LL" slack="0" dual="0.834862385321101"/>
  <constraint name="c177" index="89" status="LL" slack="0" dual="0.357456140350877"/>
  <constraint name="c179" index="90" status="LL" slack="0" dual="-0"/>
  <constraint name="c181" index="91" status="LL" slack="0" dual="-0"/>
  <constraint name="c183" index="92" status="LL" slack="0" dual="2.05787037037037"/>
  <constraint name="c185" index="93" status="LL" slack="0" dual="0.906666666666667"/>
  <constraint name="c187" index="94" status="LL" slack="0" dual="-0"/>
  <constraint name="c188" index="95" status="LL" slack="0" dual="-165.085648148148"/>
 </linearConstraints>
 <variables>
  <variable name="_lPl0._((Pl0,_1,_0),_(Pl0,_6,_0_0)),Pl1._((Pl1,_2,_0),_(Pl1,_8,_0_0))g#15" index="0" status="LL" value="0" reducedCost="-88"/>
  <variable name="_lPl0._((Pl0,_1,_0),_(Pl0,_6,_0_0)),Pl1._((Pl1,_2,_0),_(Pl1,_8,_0_1))g#16" index="1" status="LL" value="0" reducedCost="-42.0275229357798"/>
  <variable name="_lPl0._((Pl0,_1,_0),_(Pl0,_6,_0_1)),Pl1._((Pl1,_2,_0),_(Pl1,_8,_0_0))g#17" index="2" status="LL" value="0" reducedCost="-60"/>
  <variable name="_lPl0._((Pl0,_1,_0),_(Pl0,_6,_0_1)),Pl1._((Pl1,_2,_0),_(Pl1,_8,_0_1))g#18" index="3" status="BS" value="0" reducedCost="-0"/>
  <variable name="_lPl0._((Pl0,_1,_1),_(Pl0,_5,_1_0)),Pl1._((Pl1,_2,_0),_(Pl1,_8,_0_0))g#19" index="4" status="BS" value="0.100127477112065" reducedCost="-0"/>
  <variable name="_lPl0._((Pl0,_1,_1),_(Pl0,_5,_1_0)),Pl1._((Pl1,_2,_0),_(Pl1,_8,_0_1))g#20" index="5" status="LL" value="0" reducedCost="-15.3853211009174"/>
  <variable name="_lPl0._((Pl0,_1,_0),_(Pl0,_4,_0_0)),Pl1._((Pl1,_2,_1),_(Pl1,_11,_1_0))g#21" index="6" status="BS" value="0" reducedCost="-0"/>
  <variable name="_lPl0._((Pl0,_1,_0),_(Pl0,_4,_0_0)),Pl1._((Pl1,_2,_1),_(Pl1,_11,_1_1))g#22" index="7" status="BS" value="0" reducedCost="-0"/>
  <variable name="_lPl0._((Pl0,_1,_1),_(Pl0,_7,_1_1)),Pl1._((Pl1,_2,_1),_(Pl1,_11,_1_0))g#23" index="8" status="LL" value="0" reducedCost="-23.6315789473684"/>
  <variable name="_lPl0._((Pl0,_1,_1),_(Pl0,_7,_1_1)),Pl1._((Pl1,_2,_1),_(Pl1,_11,_1_1))g#24" index="9" status="BS" value="0.4270483254143" reducedCost="-0"/>
  <variable name="_lPl0._((Pl0,_1,_0),_(Pl0,_4,_0_1)),Pl1._((Pl1,_2,_1),_(Pl1,_9,_1_0))g#25" index="10" status="LL" value="0" reducedCost="-122.085648148148"/>
  <variable name="_lPl0._((Pl0,_1,_0),_(Pl0,_4,_0_1)),Pl1._((Pl1,_2,_1),_(Pl1,_9,_1_1))g#26" index="11" status="BS" value="0.100127477112064" reducedCost="-0"/>
  <variable name="_lPl0._((Pl0,_1,_1),_(Pl0,_7,_1_0)),Pl1._((Pl1,_2,_1),_(Pl1,_9,_1_0))g#27" index="12" status="LL" value="0" reducedCost="-15.7083333333333"/>
  <variable name="_lPl0._((Pl0,_1,_1),_(Pl0,_7,_1_0)),Pl1._((Pl1,_2,_1),_(Pl1,_9,_1_1))g#28" index="13" status="BS" value="0.372696720361571" reducedCost="-0"/>
  <variable name="_lPl0._((Pl0,_1,_1),_(Pl0,_5,_1_1)),Pl1._((Pl1,_2,_0),_(Pl1,_10,_0_0))g#29" index="14" status="BS" value="0" reducedCost="-0"/>
  <variable name="_lPl0._((Pl0,_1,_1),_(Pl0,_5,_1_1)),Pl1._((Pl1,_2,_0),_(Pl1,_10,_0_1))g#30" index="15" status="LL" value="0" reducedCost="-46"/>
  <variable name="_lPl0._(),Pl1._()g#0" index="16" status="UL" value="1" reducedCost="113.085648148148"/>
  <variable name="_lPl0._((Pl0,_1,_0)),Pl1._()g#1" index="17" status="BS" value="0.100127477112064" reducedCost="-0"/>
  <variable name="_lPl0._((Pl0,_1,_1)),Pl1._()g#2" index="18" status="BS" value="0.899872522887936" reducedCost="-0"/>
  <variable name="_lPl0._((Pl0,_1,_0)),Pl1._((Pl1,_2,_0))g#3" index="19" status="BS" value="0" reducedCost="-0"/>
  <variable name="_lPl0._((Pl0,_1,_0)),Pl1._((Pl1,_2,_1))g#4" index="20" status="BS" value="0.100127477112064" reducedCost="-0"/>
  <variable name="_lPl0._((Pl0,_1,_1)),Pl1._((Pl1,_2,_0))g#5" index="21" status="BS" value="0.100127477112065" reducedCost="-0"/>
  <variable name="_lPl0._((Pl0,_1,_1)),Pl1._((Pl1,_2,_1))g#6" index="22" status="BS" value="0.799745045775871" reducedCost="-0"/>
  <variable name="_lPl0._((Pl0,_1,_0),_(Pl0,_6,_0_0)),Pl1._((Pl1,_2,_0))g#7" index="23" status="BS" value="0" reducedCost="-0"/>
  <variable name="_lPl0._((Pl0,_1,_0),_(Pl0,_6,_0_1)),Pl1._((Pl1,_2,_0))g#8" index="24" status="BS" value="0" reducedCost="-0"/>
  <variable name="_lPl0._((Pl0,_1,_0),_(Pl0,_4,_0_0)),Pl1._((Pl1,_2,_1))g#9" index="25" status="LL" value="0" reducedCost="-115.668981481481"/>
  <variable name="_lPl0._((Pl0,_1,_0),_(Pl0,_4,_0_1)),Pl1._((Pl1,_2,_1))g#10" index="26" status="BS" value="0.100127477112064" reducedCost="-0"/>
  <variable name="_lPl0._((Pl0,_1,_1),_(Pl0,_5,_1_0)),Pl1._((Pl1,_2,_0))g#11" index="27" status="BS" value="0.100127477112065" reducedCost="-0"/>
  <variable name="_lPl0._((Pl0,_1,_1),_(Pl0,_5,_1_1)),Pl1._((Pl1,_2,_0))g#12" index="28" status="BS" value="0" reducedCost="-0"/>
  <variable name="_lPl0._((Pl0,_1,_1),_(Pl0,_7,_1_0)),Pl1._((Pl1,_2,_1))g#13" index="29" status="BS" value="0.372696720361571" reducedCost="-0"/>
  <variable name="_lPl0._((Pl0,_1,_1),_(Pl0,_7,_1_1)),Pl1._((Pl1,_2,_1))g#14" index="30" status="BS" value="0.4270483254143" reducedCost="-0"/>
  <variable name="_lPl0._((Pl0,_1,_1),_(Pl0,_5,_1_0)),Pl1._()g#31" index="31" status="BS" value="0.899872522887936" reducedCost="-0"/>
  <variable name="_lPl0._((Pl0,_1,_1),_(Pl0,_5,_1_0)),Pl1._((Pl1,_2,_1))g#32" index="32" status="BS" value="0.799745045775871" reducedCost="-0"/>
  <variable name="_lPl0._((Pl0,_1,_1),_(Pl0,_5,_1_1)),Pl1._()g#33" index="33" status="BS" value="0" reducedCost="-0"/>
  <variable name="_lPl0._(),Pl1._((Pl1,_2,_0))g#34" index="34" status="BS" value="0.100127477112065" reducedCost="-0"/>
  <variable name="_lPl0._((Pl0,_1,_1),_(Pl0,_5,_1_1)),Pl1._((Pl1,_2,_1))g#35" index="35" status="BS" value="0" reducedCost="-0"/>
  <variable name="_lPl0._((Pl0,_1,_0),_(Pl0,_4,_0_0)),Pl1._()g#36" index="36" status="BS" value="0" reducedCost="-0"/>
  <variable name="_lPl0._((Pl0,_1,_0),_(Pl0,_4,_0_0)),Pl1._((Pl1,_2,_0))g#37" index="37" status="LL" value="0" reducedCost="-113.085648148148"/>
  <variable name="_lPl0._((Pl0,_1,_0),_(Pl0,_4,_0_1)),Pl1._()g#38" index="38" status="BS" value="0.100127477112064" reducedCost="-0"/>
  <variable name="_lPl0._(),Pl1._((Pl1,_2,_1))g#39" index="39" status="BS" value="0.899872522887935" reducedCost="-0"/>
  <variable name="_lPl0._((Pl0,_1,_0),_(Pl0,_4,_0_1)),Pl1._((Pl1,_2,_0))g#40" index="40" status="LL" value="0" reducedCost="-113.085648148148"/>
  <variable name="_lPl0._((Pl0,_1,_1),_(Pl0,_7,_1_1)),Pl1._()g#41" index="41" status="BS" value="0.4270483254143" reducedCost="-0"/>
  <variable name="_lPl0._((Pl0,_1,_1),_(Pl0,_7,_1_1)),Pl1._((Pl1,_2,_0))g#42" index="42" status="LL" value="0" reducedCost="-0"/>
  <variable name="_lPl0._((Pl0,_1,_1),_(Pl0,_7,_1_0)),Pl1._()g#43" index="43" status="UL" value="1" reducedCost="0"/>
  <variable name="_lPl0._((Pl0,_1,_1),_(Pl0,_7,_1_0)),Pl1._((Pl1,_2,_0))g#44" index="44" status="BS" value="0.627303279638429" reducedCost="-0"/>
  <variable name="_lPl0._((Pl0,_1,_0),_(Pl0,_6,_0_0)),Pl1._()g#45" index="45" status="BS" value="0" reducedCost="-0"/>
  <variable name="_lPl0._((Pl0,_1,_0),_(Pl0,_6,_0_0)),Pl1._((Pl1,_2,_1))g#46" index="46" status="LL" value="0" reducedCost="-48.875"/>
  <variable name="_lPl0._((Pl0,_1,_0),_(Pl0,_6,_0_1)),Pl1._()g#47" index="47" status="BS" value="0" reducedCost="-0"/>
  <variable name="_lPl0._((Pl0,_1,_0),_(Pl0,_6,_0_1)),Pl1._((Pl1,_2,_1))g#48" index="48" status="LL" value="0" reducedCost="-46"/>
  <variable name="_lv,Pl1._()g#49" index="49" status="BS" value="44.0937536215089" reducedCost="-0"/>
  <variable name="_lv,Pl1._((Pl1,_2,_0))g#50" index="50" status="BS" value="4.90624637849117" reducedCost="-0"/>
  <variable name="_lv,Pl1._((Pl1,_2,_1))g#51" index="51" status="BS" value="39.1875072430177" reducedCost="-0"/>
  <variable name="_lv,Pl1._((Pl1,_2,_0),_(Pl1,_10,_0_0))g#52" index="52" status="BS" value="0" reducedCost="-0"/>
  <variable name="_lv,Pl1._((Pl1,_2,_0),_(Pl1,_10,_0_1))g#53" index="53" status="BS" value="0" reducedCost="-0"/>
  <variable name="_lv,Pl1._((Pl1,_2,_1),_(Pl1,_9,_1_0))g#54" index="54" status="BS" value="0" reducedCost="-0"/>
  <variable name="_lv,Pl1._((Pl1,_2,_1),_(Pl1,_9,_1_1))g#55" index="55" status="BS" value="-2.23618032216943" reducedCost="-0"/>
  <variable name="_lv,Pl1._((Pl1,_2,_1),_(Pl1,_11,_1_0))g#56" index="56" status="BS" value="0" reducedCost="-0"/>
  <variable name="_lv,Pl1._((Pl1,_2,_1),_(Pl1,_11,_1_1))g#57" index="57" status="BS" value="41.4236875651871" reducedCost="-0"/>
  <variable name="_lv,Pl1._((Pl1,_2,_0),_(Pl1,_8,_0_0))g#58" index="58" status="BS" value="4.90624637849117" reducedCost="-0"/>
  <variable name="_lv,Pl1._((Pl1,_2,_0),_(Pl1,_8,_0_1))g#59" index="59" status="BS" value="0" reducedCost="-0"/>
  <variable name="_lIS.(Pl1).Pl1._(),Pl1._((Pl1,_2,_0))g#60" index="60" status="BS" value="4.90624637849117" reducedCost="-0"/>
  <variable name="_lIS.(Pl1).Pl1._((Pl1,_2,_0)),Pl1._((Pl1,_2,_0))g#61" index="61" status="BS" value="4.90624637849117" reducedCost="-0"/>
  <variable name="_lIS.(Pl1).Pl1._((Pl1,_2,_0)),Pl1._((Pl1,_2,_0))g#62" index="62" status="SB" value="0" reducedCost="-0"/>
  <variable name="_lIS.(Pl1).Pl1._((Pl1,_2,_1)),Pl1._((Pl1,_2,_0))g#63" index="63" status="SB" value="0" reducedCost="-0"/>
  <variable name="_lIS.(Pl1).Pl1._((Pl1,_2,_1)),Pl1._((Pl1,_2,_0))g#64" index="64" status="BS" value="4.90624637849117" reducedCost="-0"/>
  <variable name="_lIS.(Pl1).Pl1._(),Pl1._((Pl1,_2,_1))g#65" index="65" status="BS" value="39.1875072430177" reducedCost="-0"/>
  <variable name="_lIS.(Pl1).Pl1._((Pl1,_2,_0)),Pl1._((Pl1,_2,_1))g#66" index="66" status="BS" value="39.1875072430177" reducedCost="-0"/>
  <variable name="_lIS.(Pl1).Pl1._((Pl1,_2,_0)),Pl1._((Pl1,_2,_1))g#67" index="67" status="BS" value="0" reducedCost="-0"/>
  <variable name="_lIS.(Pl1).Pl1._((Pl1,_2,_1)),Pl1._((Pl1,_2,_1))g#68" index="68" status="BS" value="-2.23618032216941" reducedCost="-0"/>
  <variable name="_lIS.(Pl1).Pl1._((Pl1,_2,_1)),Pl1._((Pl1,_2,_1))g#69" index="69" status="BS" value="41.4236875651871" reducedCost="-0"/>
  <variable name="_lIS.(Pl1).Pl1._(),Pl1._()g#70" index="70" status="BS" value="44.0937536215089" reducedCost="-0"/>
  <variable name="_lIS.(Pl1).Pl1._((Pl1,_2,_0)),Pl1._()g#71" index="71" status="BS" value="44.0937536215089" reducedCost="-0"/>
  <variable name="_lIS.(Pl1).Pl1._((Pl1,_2,_0)),Pl1._()g#72" index="72" status="BS" value="0" reducedCost="-0"/>
  <variable name="_lIS.(Pl1).Pl1._((Pl1,_2,_1)),Pl1._()g#73" index="73" status="BS" value="-6" reducedCost="-0"/>
  <variable name="_lIS.(Pl1).Pl1._((Pl1,_2,_1)),Pl1._()g#74" index="74" status="BS" value="41.4236875651871" reducedCost="-0"/>
  <variable name="_lIS.(Pl1).Pl1._((Pl1,_2,_0)),Pl1._((Pl1,_2,_0),_(Pl1,_8,_0_0))g#75" index="75" status="BS" value="4.90624637849117" reducedCost="-0"/>
  <variable name="_lIS.(Pl1).Pl1._((Pl1,_2,_0)),Pl1._((Pl1,_2,_0),_(Pl1,_8,_0_1))g#76" index="76" status="BS" value="0" reducedCost="-0"/>
  <variable name="_lIS.(Pl1).Pl1._((Pl1,_2,_1)),Pl1._((Pl1,_2,_1),_(Pl1,_11,_1_0))g#77" index="77" status="BS" value="0" reducedCost="-0"/>
  <variable name="_lIS.(Pl1).Pl1._((Pl1,_2,_1)),Pl1._((Pl1,_2,_1),_(Pl1,_11,_1_1))g#78" index="78" status="BS" value="41.4236875651871" reducedCost="-0"/>
  <variable name="_lIS.(Pl1).Pl1._((Pl1,_2,_1)),Pl1._((Pl1,_2,_1),_(Pl1,_9,_1_0))g#79" index="79" status="BS" value="0" reducedCost="-0"/>
  <variable name="_lIS.(Pl1).Pl1._((Pl1,_2,_1)),Pl1._((Pl1,_2,_1),_(Pl1,_9,_1_1))g#80" index="80" status="BS" value="-2.23618032216943" reducedCost="-0"/>
  <variable name="_lIS.(Pl1).Pl1._((Pl1,_2,_0)),Pl1._((Pl1,_2,_0),_(Pl1,_10,_0_0))g#81" index="81" status="BS" value="0" reducedCost="-0"/>
  <variable name="_lIS.(Pl1).Pl1._((Pl1,_2,_0)),Pl1._((Pl1,_2,_0),_(Pl1,_10,_0_1))g#82" index="82" status="BS" value="0" reducedCost="-0"/>
 </variables>
</CPLEXSolution>
